CMPL model generation - running

CMPL version: 1.11.0
Authors: Thomas Schleiff, Mike Steglich
Distributed under the GPLv3 

create model instance ...
write model instance ...
CMPL model generation - finished

Solver - running


Welcome to IBM(R) ILOG(R) CPLEX(R) Interactive Optimizer 12.7.1.0
  with Simplex, Mixed Integer & Barrier Optimizers
5725-A06 5725-A29 5724-Y48 5724-Y49 5724-Y54 5724-Y55 5655-Y21
Copyright IBM Corp. 1988, 2017.  All Rights Reserved.

Type 'help' for a list of available commands.
Type 'help' followed by a command name for more
information on commands.

CPLEX> Specified objective sense: MINIMIZE
Selected objective  name:  line[1]
Selected RHS        name:  RHS
Selected bound      name:  BOUND
Problem '/tmp/cmpl.T24310.mps' read.
Read time = 0.05 sec. (8.17 ticks)
CPLEX> CPXPARAM_Read_APIEncoding                        "UTF-8"
Tried aggregator 3 times.
MIP Presolve eliminated 19177 rows and 30590 columns.
MIP Presolve modified 340 coefficients.
Aggregator did 660 substitutions.
Reduced MIP has 2518 rows, 3343 columns, and 9741 nonzeros.
Reduced MIP has 3175 binaries, 0 generals, 0 SOSs, and 0 indicators.
Presolve time = 0.05 sec. (42.00 ticks)
Found incumbent of value 951.112665 after 0.10 sec. (70.43 ticks)
Probing fixed 8 vars, tightened 0 bounds.
Probing time = 0.01 sec. (4.39 ticks)
Tried aggregator 1 time.
MIP Presolve eliminated 0 rows and 8 columns.
MIP Presolve modified 38 coefficients.
Reduced MIP has 2518 rows, 3335 columns, and 9725 nonzeros.
Reduced MIP has 3335 binaries, 0 generals, 0 SOSs, and 0 indicators.
Presolve time = 0.01 sec. (8.21 ticks)
Probing time = 0.01 sec. (2.69 ticks)
Clique table members: 6064.
MIP emphasis: balance optimality and feasibility.
MIP search method: dynamic search.
Parallel mode: none, using 1 thread.
Root relaxation solution time = 0.01 sec. (5.82 ticks)

        Nodes                                         Cuts/
   Node  Left     Objective  IInf  Best Integer    Best Bound    ItCnt     Gap

*     0+    0                          951.1127      -28.0765           102.95%
      0     0      241.2595     6      951.1127      241.2595      199   74.63%
*     0+    0                          241.4309      241.2595             0.07%
*     0     0      integral     0      241.3958       Cuts: 7      201    0.00%
      0     0        cutoff            241.3958      241.3958      201    0.00%
Elapsed time = 0.17 sec. (111.48 ticks, tree = 0.01 MB, solutions = 3)

Clique cuts applied:  1
Cover cuts applied:  4
Gomory fractional cuts applied:  2

Root node processing (before b&c):
  Real time             =    0.18 sec. (112.96 ticks)
Sequential b&c:
  Real time             =    0.00 sec. (0.00 ticks)
                          ------------
Total (root+branch&cut) =    0.18 sec. (112.96 ticks)

Solution pool: 3 solutions saved.

MIP - Integer optimal solution:  Objective =  2.4139580600e+02
Solution time =    0.18 sec.  Iterations = 201  Nodes = 0
Deterministic time = 113.06 ticks  (643.75 ticks/sec)

CPLEX> Incumbent solution written to file '/tmp/cmpl.T24310.gsol'.
CPLEX> 
CMPL: Time used for model generation: 0 seconds
CMPL: Time used for solving the model: 1 seconds


Solution written to ASCII file: results/output_generated_conf_0.6/2016-04-04-4/fair-nonlinear.sol

Solver - finished
